Copyright (C) 2013-2015, Filipe Brandao
Build (method = -2)
  #dp: 34248
  Step-3' Graph: 289 vertices and 12573 arcs (0.06s)
  Step-4' Graph: 260 vertices and 12515 arcs (0.07s)
  #V4/#V3 = 0.90
  #A4/#A3 = 1.00
Ready! (0.07s)
Optimize a model with 494 rows, 12516 columns and 37033 nonzeros
Found heuristic solution: objective 632
Presolve removed 99 rows and 125 columns
Presolve time: 0.06s
Presolved: 395 rows, 12391 columns, 36484 nonzeros
Variable types: 0 continuous, 12391 integer (1673 binary)
Optimize a model with 395 rows, 12391 columns and 36484 nonzeros
Presolved: 395 rows, 12391 columns, 36484 nonzeros

Root barrier log...

Ordering time: 0.00s

Barrier statistics:
 AA' NZ     : 1.949e+04
 Factor NZ  : 3.696e+04 (roughly 5 MBytes of memory)
 Factor Ops : 5.111e+06 (less than 1 second per iteration)
 Threads    : 1

                  Objective                Residual
Iter       Primal          Dual         Primal    Dual     Compl     Time
   0   3.74573961e+04 -3.63490321e+05  7.15e+05 1.47e-01  2.04e+02     0s
   1   1.11278163e+04 -7.65746357e+04  1.19e+05 4.66e-15  3.42e+01     0s
   2   2.15925942e+03 -3.06526845e+04  1.24e+04 1.71e-14  4.33e+00     0s
   3   9.42527003e+02 -8.72284867e+03  9.10e+02 1.58e-14  5.50e-01     0s
   4   7.57133209e+02 -1.95509779e+03  1.94e+02 4.11e-15  1.33e-01     0s
   5   7.21100005e+02 -1.35821952e+03  1.44e+02 2.33e-15  9.98e-02     0s
   6   6.31141437e+02 -9.26868431e+02  7.94e+01 1.65e-15  7.09e-02     0s
   7   5.93826662e+02 -7.09548424e+02  6.57e+01 1.86e-15  5.89e-02     0s
   8   4.63628845e+02 -1.88941408e+02  1.67e+01 1.70e-15  2.76e-02     0s
   9   4.11549710e+02  6.13909991e-02  7.61e+00 1.45e-15  1.71e-02     0s
  10   3.73584988e+02  1.09732709e+02  3.10e+00 1.66e-15  1.08e-02     0s
  11   3.62007362e+02  2.04353625e+02  1.83e+00 1.76e-15  6.41e-03     0s
  12   3.55801873e+02  2.71089591e+02  6.21e-01 1.32e-15  3.42e-03     0s
  13   3.47963370e+02  3.01275517e+02  2.18e-01 1.90e-15  1.88e-03     0s
  14   3.44437144e+02  3.25272255e+02  6.99e-02 1.55e-15  7.71e-04     0s
  15   3.43928252e+02  3.25544550e+02  5.38e-02 1.78e-15  7.39e-04     0s
  16   3.43022035e+02  3.30577820e+02  2.49e-02 1.86e-15  5.00e-04     0s
  17   3.42342386e+02  3.35786575e+02  8.61e-03 1.45e-15  2.63e-04     0s
  18   3.41953703e+02  3.39786127e+02  2.69e-03 1.61e-15  8.71e-05     0s
  19   3.41902448e+02  3.40699145e+02  1.95e-03 1.54e-15  4.84e-05     0s
  20   3.41849853e+02  3.41107044e+02  1.30e-03 1.55e-15  2.99e-05     0s
  21   3.41768791e+02  3.41680881e+02  2.98e-04 1.44e-15  3.54e-06     0s
  22   3.41751206e+02  3.41739618e+02  8.02e-06 1.32e-15  4.65e-07     0s
  23   3.41750036e+02  3.41749900e+02  5.54e-11 1.55e-15  5.44e-09     0s
  24   3.41750000e+02  3.41750000e+02  2.28e-10 1.43e-15  5.44e-12     0s

Barrier solved model in 24 iterations and 0.15 seconds
Optimal objective 3.41750000e+02


Root relaxation: objective 3.417500e+02, 4886 iterations, 0.17 seconds

    Nodes    |    Current Node    |     Objective Bounds      |     Work
 Expl Unexpl |  Obj  Depth IntInf | Incumbent    BestBd   Gap | It/Node Time

     0     0  341.75000    0   37  632.00000  341.75000  45.9%     -    0s
H    0     0                     342.0000000  341.75000  0.07%     -    0s

Explored 0 nodes (5754 simplex iterations) in 0.33 seconds
Thread count was 1 (of 4 available processors)

Optimal solution found (tolerance 0.00e+00)
Best objective 3.420000000000e+02, best bound 3.420000000000e+02, gap 0.0%
Preprocessing time: 0.09 seconds
Gurobi run time: 0.33 seconds
Total run time: 0.42 seconds
Objective: 342
Solution:
3 x [i=1, i=192]
3 x [i=2, i=188]
1 x [i=2, i=189]
5 x [i=3, i=191]
2 x [i=4, i=184]
3 x [i=5, i=183]
5 x [i=6, i=198]
3 x [i=7, i=185]
3 x [i=8, i=181]
1 x [i=8, i=189]
2 x [i=9, i=180]
3 x [i=10, i=196]
4 x [i=11, i=179]
1 x [i=12, i=176]
3 x [i=12, i=177]
2 x [i=13, i=187]
3 x [i=14, i=175]
1 x [i=14, i=178]
1 x [i=15, i=198]
3 x [i=16, i=174]
1 x [i=16, i=199]
1 x [i=17, i=199]
5 x [i=18, i=178]
3 x [i=19, i=172]
1 x [i=19, i=199]
3 x [i=20, i=170]
1 x [i=20, i=200]
4 x [i=21, i=169]
2 x [i=22, i=173]
1 x [i=23, i=166]
3 x [i=23, i=167]
5 x [i=24, i=171]
3 x [i=25, i=164]
2 x [i=26, i=163]
4 x [i=27, i=162]
1 x [i=28, i=162]
6 x [i=28, i=165]
2 x [i=29, i=161]
3 x [i=30, i=168]
1 x [i=31, i=158]
3 x [i=31, i=160]
1 x [i=32, i=159]
3 x [i=33, i=156]
1 x [i=33, i=159]
2 x [i=34, i=157]
1 x [i=35, i=166]
2 x [i=36, i=153]
2 x [i=37, i=152]
1 x [i=38, i=200]
3 x [i=39, i=151]
1 x [i=39, i=200]
3 x [i=40, i=155]
1 x [i=41, i=150]
2 x [i=41, i=154]
1 x [i=42, i=149]
5 x [i=42, i=152]
3 x [i=43, i=148]
3 x [i=43, i=149]
3 x [i=44, i=147]
3 x [i=45, i=146]
4 x [i=46, i=146]
1 x [i=47, i=145]
1 x [i=47, i=147]
1 x [i=48, i=144]
2 x [i=49, i=143]
1 x [i=49, i=144]
1 x [i=50, i=142]
2 x [i=51, i=141]
2 x [i=51, i=142]
1 x [i=51, i=232, i=234]
3 x [i=52, i=140]
1 x [i=53, i=139]
2 x [i=54, i=138]
1 x [i=55, i=138]
1 x [i=56, i=137]
2 x [i=57, i=136]
3 x [i=58, i=135]
1 x [i=58, i=136]
2 x [i=58, i=227, i=232]
2 x [i=59, i=134]
2 x [i=59, i=228, i=230]
1 x [i=59, i=231]
6 x [i=60, i=133]
1 x [i=61, i=132]
3 x [i=61, i=227, i=229]
3 x [i=62, i=131]
3 x [i=63, i=131]
1 x [i=64, i=130]
2 x [i=65, i=128]
1 x [i=65, i=129]
6 x [i=66, i=130]
4 x [i=67, i=126]
2 x [i=68, i=125]
1 x [i=69, i=124]
2 x [i=69, i=125]
1 x [i=69, i=126]
3 x [i=70, i=123]
1 x [i=70, i=222, i=226]
3 x [i=71, i=122]
1 x [i=72, i=121]
1 x [i=72, i=124]
2 x [i=73, i=120]
2 x [i=74, i=119]
1 x [i=74, i=120]
1 x [i=74, i=219, i=226]
3 x [i=75, i=118]
2 x [i=76, i=116]
1 x [i=77, i=116]
1 x [i=77, i=217, i=226]
2 x [i=78, i=115]
1 x [i=79, i=115]
2 x [i=80, i=121]
1 x [i=81, i=115]
1 x [i=81, i=121]
1 x [i=82, i=111]
2 x [i=82, i=112]
2 x [i=82, i=215, i=223]
5 x [i=83, i=110]
2 x [i=83, i=216, i=225]
2 x [i=84, i=109]
4 x [i=85, i=108]
3 x [i=86, i=107]
1 x [i=86, i=109]
2 x [i=87, i=109]
2 x [i=88, i=211, i=218]
2 x [i=89, i=105]
2 x [i=90, i=103]
3 x [i=90, i=104]
1 x [i=90, i=201, i=227]
1 x [i=91, i=102]
1 x [i=91, i=103]
4 x [i=92, i=205, i=221]
3 x [i=93, i=100]
2 x [i=93, i=206, i=224]
1 x [i=94, i=99]
2 x [i=94, i=101]
2 x [i=95, i=203, i=220]
3 x [i=96, i=98]
1 x [i=96, i=207, i=216]
2 x [i=97, i=207, i=213]
1 x [i=101, i=197, i=219]
1 x [i=104, i=195, i=226]
1 x [i=105, i=200, i=213]
1 x [i=106, i=187, i=226]
1 x [i=106, i=204, i=208]
2 x [i=107, i=108]
1 x [i=108, i=197, i=214]
1 x [i=108, i=202, i=207]
1 x [i=111, i=197, i=214]
1 x [i=112, i=182, i=224]
2 x [i=113, i=182, i=222]
1 x [i=114, i=196, i=208]
2 x [i=115, i=195, i=212]
1 x [i=117, i=196, i=204]
1 x [i=117, i=117]
1 x [i=119, i=193, i=207]
1 x [i=122, i=190, i=205]
1 x [i=122, i=193, i=204]
1 x [i=124, i=198, i=200]
3 x [i=127, i=174, i=217]
1 x [i=129, i=194, i=197]
1 x [i=131, i=186, i=202]
2 x [i=139, i=147, i=233]
1 x [i=142, i=144, i=234]
1 x [i=142, i=147, i=230]
1 x [i=144, i=144, i=232]
1 x [i=184, i=204, i=228, i=228]
2 x [i=206, i=208, i=209, i=218]
1 x [i=206, i=208, i=210, i=217]
